[runlim] version:		2.0.0rc12
[runlim] host:			ap-Precision-7550
[runlim] time limit:		311040000 seconds
[runlim] real time limit:	600 seconds
[runlim] space limit:		14000 MB
[runlim] argv[0]:		python3
[runlim] argv[1]:		-u
[runlim] argv[2]:		mip.py
[runlim] argv[3]:		TUD200.3
[runlim] start:			Thu Mar 26 06:25:37 2026
[runlim] child:			32873
--- Building MIP model for 200 variables ---
--- Solving with CPLEX MIP ---
Version identifier: 22.1.1.0 | 2022-11-28 | 9160aff4d
CPXPARAM_Read_DataCheck                          1
CPXPARAM_MIP_Tolerances_MIPGap                   0
Legacy callback                                  i
Tried aggregator 1 time.
MIP Presolve eliminated 137904 rows and 0 columns.
MIP Presolve modified 20522 coefficients.
Reduced MIP has 24307 rows, 7114 columns, and 193689 nonzeros.
Reduced MIP has 7114 binaries, 0 generals, 0 SOSs, and 0 indicators.
Presolve time = 0.47 sec. (498.42 ticks)
Probing fixed 194 vars, tightened 0 bounds.
Probing changed sense of 3437 constraints.
Probing time = 0.04 sec. (12.75 ticks)
Tried aggregator 2 times.
MIP Presolve eliminated 10157 rows and 3631 columns.
MIP Presolve modified 12682 coefficients.
Aggregator did 7 substitutions.
Reduced MIP has 14112 rows, 3476 columns, and 186551 nonzeros.
Reduced MIP has 3476 binaries, 0 generals, 0 SOSs, and 0 indicators.
Presolve time = 0.54 sec. (751.87 ticks)
Probing fixed 8 vars, tightened 0 bounds.
Probing changed sense of 7 constraints.
Probing time = 0.02 sec. (5.11 ticks)
Tried aggregator 1 time.
Detecting symmetries...
MIP Presolve eliminated 17 rows and 12 columns.
MIP Presolve modified 280 coefficients.
Reduced MIP has 14082 rows, 3464 columns, and 185790 nonzeros.
Reduced MIP has 3464 binaries, 0 generals, 0 SOSs, and 0 indicators.
Presolve time = 0.16 sec. (225.53 ticks)
Probing fixed 5 vars, tightened 0 bounds.
Probing time = 0.02 sec. (5.39 ticks)
Clique table members: 17601.
MIP emphasis: balance optimality and feasibility.
MIP search method: dynamic search.
Parallel mode: deterministic, using up to 12 threads.
Root relaxation solution time = 1.42 sec. (1161.76 ticks)

        Nodes                                         Cuts/
   Node  Left     Objective  IInf  Best Integer    Best Bound    ItCnt     Gap

*     0+    0                           26.0000        1.0000            96.15%
*     0+    0                           24.0000        1.0000            95.83%
      0     0       14.0000   750       24.0000       14.0000       21   41.67%

Num labels used: 24
Current incumbent solution: {16, 30, 44, 72, 86, 142, 156, 240, 254, 268, 282, 310, 324, 380, 394, 428, 456, 478, 484, 554, 666, 694, 722, 792}}
Time taken: 3.84s

Num labels used: 24
Current incumbent solution: {16, 30, 44, 72, 86, 142, 156, 240, 254, 268, 282, 310, 324, 380, 394, 428, 456, 478, 484, 554, 666, 694, 722, 792}}
Time taken: 3.84s
[runlim] sample:		23.27 time, 10.01 real, 268 MB, 2.82 load
*     0+    0                           18.0000       14.0000            22.22%
*     0+    0                           16.0000       14.0000            12.50%
      0     0  -1.00000e+75     0       16.0000       14.0000       21   12.50%

Num labels used: 16
Current incumbent solution: {30, 86, 142, 240, 268, 324, 380, 442, 478, 498, 540, 554, 680, 736, 778, 792}}
Time taken: 11.18s
      0     2       14.0000   213       16.0000       14.0000       21   12.50%
Elapsed time = 10.41 sec. (11637.39 ticks, tree = 0.02 MB, solutions = 4)

Num labels used: 16
Current incumbent solution: {30, 86, 142, 240, 268, 324, 380, 442, 478, 498, 540, 554, 680, 736, 778, 792}}
Time taken: 11.21s
[runlim] sample:		45.19 time, 20.01 real, 302 MB, 2.70 load
[runlim] sample:		65.17 time, 30.01 real, 302 MB, 2.59 load
[runlim] sample:		85.16 time, 40.01 real, 302 MB, 2.50 load
      1     3       14.0000   729       16.0000       14.0000    57077   12.50%

Num labels used: 16
Current incumbent solution: {30, 86, 142, 240, 268, 324, 380, 442, 478, 498, 540, 554, 680, 736, 778, 792}}
Time taken: 47.42s
[runlim] sample:		107.71 time, 50.01 real, 311 MB, 2.50 load
[runlim] sample:		137.70 time, 60.01 real, 313 MB, 2.58 load
[runlim] sample:		167.67 time, 70.01 real, 313 MB, 2.64 load
[runlim] sample:		197.66 time, 80.01 real, 313 MB, 2.70 load
[runlim] sample:		227.66 time, 90.01 real, 317 MB, 2.75 load
[runlim] sample:		257.66 time, 100.01 real, 318 MB, 2.79 load
      2     3       14.0000   858       16.0000       14.0000    64854   12.50%
[runlim] sample:		288.57 time, 110.01 real, 345 MB, 2.82 load
[runlim] sample:		328.55 time, 120.01 real, 352 MB, 3.00 load

Num labels used: 16
Current incumbent solution: {30, 86, 142, 240, 268, 324, 380, 442, 478, 498, 540, 554, 680, 736, 778, 792}}
Time taken: 126.78s
[runlim] sample:		371.79 time, 130.01 real, 363 MB, 3.23 load
      3     4       14.0000   777       16.0000       14.0000   131119   12.50%
      4     4       14.0000   793       16.0000       14.0000    97581   12.50%
[runlim] sample:		422.66 time, 140.01 real, 379 MB, 3.51 load
[runlim] sample:		482.66 time, 150.01 real, 385 MB, 3.89 load
[runlim] sample:		542.64 time, 160.01 real, 385 MB, 4.22 load
[runlim] sample:		602.64 time, 170.01 real, 385 MB, 4.49 load

Num labels used: 16
Current incumbent solution: {30, 86, 142, 240, 268, 324, 380, 442, 478, 498, 540, 554, 680, 736, 778, 792}}
Time taken: 175.80s
      5     6       14.0000   647       16.0000       14.0000   221575   12.50%

Num labels used: 16
Current incumbent solution: {30, 86, 142, 240, 268, 324, 380, 442, 478, 498, 540, 554, 680, 736, 778, 792}}
Time taken: 178.31s
      6     8       14.0000   416       16.0000       14.0000   264479   12.50%
[runlim] sample:		668.51 time, 180.02 real, 416 MB, 4.80 load

Num labels used: 16
Current incumbent solution: {30, 86, 142, 240, 268, 324, 380, 442, 478, 498, 540, 554, 680, 736, 778, 792}}
Time taken: 181.04s
      7     9       14.0862   349       16.0000       14.0000   268082   12.50%

Num labels used: 16
Current incumbent solution: {30, 86, 142, 240, 268, 324, 380, 442, 478, 498, 540, 554, 680, 736, 778, 792}}
Time taken: 182.30s
      8     8        cutoff             16.0000       14.0000   269494   12.50%

Num labels used: 16
Current incumbent solution: {30, 86, 142, 240, 268, 324, 380, 442, 478, 498, 540, 554, 680, 736, 778, 792}}
Time taken: 183.70s
      9    10       14.2759   320       16.0000       14.0000   268957   12.50%
[runlim] sample:		744.45 time, 190.01 real, 447 MB, 5.37 load
[runlim] sample:		814.45 time, 200.01 real, 447 MB, 5.77 load
[runlim] sample:		884.44 time, 210.01 real, 447 MB, 6.04 load
[runlim] sample:		946.88 time, 220.01 real, 451 MB, 6.03 load

Num labels used: 16
Current incumbent solution: {30, 86, 142, 240, 268, 324, 380, 442, 478, 498, 540, 554, 680, 736, 778, 792}}
Time taken: 219.99s
[runlim] sample:		1026.86 time, 230.01 real, 459 MB, 6.33 load
[runlim] sample:		1106.86 time, 240.02 real, 460 MB, 6.59 load
     12     5       14.0000   735       16.0000       14.0000   168414   12.50%
Elapsed time = 239.44 sec. (166357.25 ticks, tree = 0.02 MB, solutions = 4)
     13     9       14.0000   406       16.0000       14.0000   264946   12.50%

Num labels used: 16
Current incumbent solution: {30, 86, 142, 240, 268, 324, 380, 442, 478, 498, 540, 554, 680, 736, 778, 792}}
Time taken: 240.26s

Num labels used: 16
Current incumbent solution: {30, 86, 142, 240, 268, 324, 380, 442, 478, 498, 540, 554, 680, 736, 778, 792}}
Time taken: 242.03s

Num labels used: 16
Current incumbent solution: {30, 86, 142, 240, 268, 324, 380, 442, 478, 498, 540, 554, 680, 736, 778, 792}}
Time taken: 242.28s

Num labels used: 16
Current incumbent solution: {30, 86, 142, 240, 268, 324, 380, 442, 478, 498, 540, 554, 680, 736, 778, 792}}
Time taken: 243.06s
     21    15       14.0000   387       16.0000       14.0000   319700   12.50%

Num labels used: 16
Current incumbent solution: {30, 86, 142, 240, 268, 324, 380, 442, 478, 498, 540, 554, 680, 736, 778, 792}}
Time taken: 245.96s
[runlim] sample:		1217.12 time, 250.02 real, 489 MB, 7.50 load
     36    18       14.0000   199       16.0000       14.0000   324430   12.50%
*    50+   14                           14.0000       14.0000             0.00%
     53    16        cutoff             14.0000       14.0000   328939    0.00%
[runlim] sample:		1330.15 time, 260.02 real, 502 MB, 8.11 load
     64    21       14.2000   361       14.0000       14.0000   333705    0.00%
[runlim] sample:		1423.93 time, 270.02 real, 504 MB, 8.32 load
     68     8       14.0000   402       14.0000       14.0000   264647    0.00%
     72    21       14.3673   350       14.0000       14.0000   340649    0.00%
[runlim] sample:		1503.86 time, 280.01 real, 507 MB, 8.27 load
     76    21        cutoff             14.0000       14.0000   344931    0.00%
     81    22       14.5000   329       14.0000       14.0000   349372    0.00%
     82    30       15.0000   399       14.0000       14.0000   351057    0.00%
Elapsed time = 285.04 sec. (183574.63 ticks, tree = 0.06 MB, solutions = 6)
[runlim] sample:		1579.48 time, 290.01 real, 511 MB, 8.15 load
     87    16       14.2609   473       14.0000       14.0000   346079    0.00%
     90    15        cutoff             14.0000       14.0000   350057    0.00%
     93    14        cutoff             14.0000       14.0000   354239    0.00%
[runlim] sample:		1647.92 time, 300.01 real, 511 MB, 8.12 load
[runlim] sample:		1707.91 time, 310.01 real, 511 MB, 7.79 load
     94    23       15.0000   632       14.0000       14.0000   375044    0.00%
[runlim] sample:		1763.51 time, 320.01 real, 511 MB, 7.44 load
     95     9       14.0000   637       14.0000       14.0000   352779    0.00%
     96     7       14.0000   734       14.0000       14.0000   278626    0.00%
[runlim] sample:		1793.51 time, 330.01 real, 511 MB, 6.75 load
     97     9       14.0000   725       14.0000       14.0000   359386    0.00%
[runlim] sample:		1803.70 time, 340.01 real, 511 MB, 5.87 load
     98     6       14.0000   732       14.0000       14.0000   232575    0.00%
     99     5       14.0000   823       14.0000       14.0000   170886    0.00%

Num labels used: 14
Current incumbent solution: {30, 72, 114, 142, 240, 268, 310, 352, 380, 478, 498, 540, 736, 778}}
Time taken: 345.34s

Clique cuts applied:  4
Zero-half cuts applied:  1

Root node processing (before b&c):
  Real time             =   10.34 sec. (11605.81 ticks)
Parallel b&c, 12 threads:
  Real time             =  334.20 sec. (226591.29 ticks)
  Sync time (average)   =  149.91 sec.
  Wait time (average)   =    0.00 sec.
                          ------------
Total (root+branch&cut) =  344.54 sec. (238197.10 ticks)

==============================
FINAL INCUMBENT SOLUTION:
{142, 380, 30, 268, 30, 268, 114, 352, 114, 352, 240, 478, 30, 268, 114, 352, 380, 142, 498, 736, 72, 310, 778, 540, 540, 778, 736, 498, 736, 498, 142, 380, 380, 142, 142, 380, 310, 72, 310, 72, 72, 310, 498, 736, 498, 736, 778, 540, 498, 736, 352, 114, 142, 380, 778, 540, 142, 380, 268, 30, 268, 30, 736, 498, 114, 352, 72, 310, 310, 72, 540, 778, 142, 380, 268, 30, 72, 310, 72, 310, 498, 736, 114, 352, 540, 778, 72, 310, 778, 540, 540, 778, 114, 352, 540, 778, 240, 478, 478, 240, 114, 352, 736, 498, 352, 114, 352, 114, 540, 778, 540, 778, 540, 778, 30, 268, 310, 72, 352, 114, 380, 142, 114, 352, 540, 778, 736, 498, 310, 72, 478, 240, 778, 540, 114, 352, 268, 30, 268, 30, 540, 778, 72, 310, 30, 268, 380, 142, 268, 30, 778, 540, 736, 498, 352, 114, 30, 268, 498, 736, 778, 540, 268, 30, 268, 30, 30, 268, 142, 380, 736, 498, 114, 352, 142, 380, 352, 114, 142, 380, 736, 498, 736, 498, 142, 380, 268, 30, 30, 268, 72, 310, 142, 380, 142, 380, 736, 498, 114, 352}
Number of labels used: 14
Total time: 345.36s
Memory used: 223.56 MB
==============================
[runlim] end:			Thu Mar 26 06:31:22 2026
[runlim] status:		ok
[runlim] result:		0
[runlim] children:		1
[runlim] processes:		2
[runlim] real:			345.42 seconds
[runlim] time:			1809.10 seconds
[runlim] space:			511 MB
[runlim] load:			8.32 maximum
[runlim] samples:		3455
